
Gurobi 9.1.2 (linux64) logging started Mon Jul  5 17:47:28 2021


Gurobi 9.1.2 (linux64) logging started Mon Jul  5 17:47:36 2021

Gurobi Optimizer version 9.1.2 build v9.1.2rc0 (linux64)
Thread count: 40 physical cores, 40 logical processors, using up to 32 threads
Optimize a model with 3118529 rows, 1314095 columns and 9410550 nonzeros
Model fingerprint: 0x3abac1bc
Coefficient statistics:
  Matrix range     [3e-04, 1e+00]
  Objective range  [1e+01, 4e+05]
  Bounds range     [1e+03, 8e+06]
  RHS range        [1e-01, 3e+07]
Presolve removed 84968 rows and 178685 columns
Presolve time: 0.87s

Barrier solved model in 0 iterations and 0.87 seconds
Model is infeasible

User-callback calls 16, time in user-callback 0.00 sec

Gurobi 9.1.2 (linux64) logging started Mon Jul  5 18:11:46 2021


Gurobi 9.1.2 (linux64) logging started Mon Jul  5 18:11:54 2021

Gurobi Optimizer version 9.1.2 build v9.1.2rc0 (linux64)
Thread count: 40 physical cores, 40 logical processors, using up to 32 threads
Optimize a model with 3118434 rows, 1314095 columns and 9410455 nonzeros
Model fingerprint: 0xe5a9e4e4
Coefficient statistics:
  Matrix range     [3e-04, 1e+00]
  Objective range  [1e+01, 4e+05]
  Bounds range     [1e-01, 8e+06]
  RHS range        [6e+00, 3e+07]
Presolve removed 293975 rows and 1111820 columns (presolve time = 22s) ...
Presolve removed 401960 rows and 1219810 columns (presolve time = 25s) ...
Presolve removed 401960 rows and 1238464 columns
Presolve time: 26.18s
Presolved: 912135 rows, 1880065 columns, 4956072 nonzeros
Elapsed ordering time = 43s
Elapsed ordering time = 45s
Elapsed ordering time = 50s
Ordering time: 57.26s

Barrier statistics:
 Dense cols : 2
 Free vars  : 4737
 AA' NZ     : 8.224e+06
 Factor NZ  : 6.747e+07 (roughly 1.7 GBytes of memory)
 Factor Ops : 1.160e+10 (less than 1 second per iteration)
 Threads    : 32

                  Objective                Residual
Iter       Primal          Dual         Primal    Dual     Compl     Time
   0  -5.40678304e+14  7.23186359e+11  3.58e+04 6.51e+06  1.25e+11   109s
   1  -4.34997459e+14  4.42021631e+14  9.70e+03 5.36e+07  5.72e+10   135s
   2  -3.78261641e+14  4.09238082e+14  3.45e+03 2.95e+07  3.14e+10   170s
   3  -3.27713176e+14  3.39869163e+14  1.64e+03 1.52e+07  1.63e+10   210s
   4  -3.11839018e+14  2.75642368e+14  1.38e+03 7.67e+06  8.55e+09   242s
   5  -2.93111109e+14  2.22382902e+14  1.20e+03 6.42e+06  7.14e+09   263s
   6  -2.84286592e+14  1.10551672e+14  1.12e+03 5.57e+06  6.24e+09   284s
   7  -2.81787226e+14 -9.35482829e+12  1.10e+03 5.48e+06  6.14e+09   308s
   8  -2.81518457e+14 -5.65021635e+13  1.10e+03 5.48e+06  6.14e+09   335s
   9  -2.81247204e+14 -9.29404037e+13  1.10e+03 5.48e+06  6.13e+09   363s
  10  -2.80800470e+14 -1.11827384e+15  1.10e+03 5.40e+06  6.06e+09   408s
  11  -2.80471974e+14 -2.21453356e+15  1.09e+03 5.38e+06  6.04e+09   442s
  12  -2.80368227e+14 -2.74051605e+15  1.09e+03 5.37e+06  6.03e+09   476s
  13  -2.80299208e+14 -3.43630777e+15  1.09e+03 5.37e+06  5.71e+09   513s
  14  -2.80131220e+14 -5.29559808e+15  1.09e+03 5.36e+06  5.49e+09   547s
  15  -2.80015192e+14 -7.28311797e+15  1.09e+03 5.36e+06  5.49e+09   581s
  16  -2.79986507e+14 -1.95223440e+16  1.09e+03 5.35e+06  5.49e+09   613s
  17  -2.79950906e+14 -4.45317622e+16  1.09e+03 5.35e+06  5.34e+09   650s
  18  -2.79935609e+14 -2.54874645e+17  1.09e+03 5.35e+06  5.28e+09   685s
  19  -2.79917690e+14 -1.09959466e+18  1.09e+03 5.35e+06  5.49e+09   722s
  20  -2.79866375e+14 -7.77124448e+19  1.09e+03 5.33e+06  1.84e+10   768s
  21  -5.40678304e+14  7.23186359e+11  3.58e+04 6.51e+06  1.25e+11   830s
  22  -8.18401964e+13 -4.43098089e+13  2.00e+03 1.42e+07  3.95e+09   897s
  23  -6.14657871e+13 -3.54321052e+13  1.26e+03 6.78e+06  1.64e+09   945s
  24  -1.01630235e+14 -6.19983262e+13  1.45e+03 5.62e+06  2.26e+09  1031s
  25  -8.80580792e+14 -1.05886922e+14  1.61e+03 5.13e+06  1.73e+10  1095s
  26  -5.90038595e+15 -2.09051252e+15  1.40e+03 6.10e+06  1.18e+11  1159s
  27* -6.03210509e+16 -1.35206927e+16  5.44e+02 3.97e+07  3.51e+07  1210s
  28* -1.30227847e+17 -2.04713819e+17  1.67e+02 1.25e+07  1.10e+07  1253s
  29* -1.69028166e+18 -1.17415632e+18  1.60e+01 1.34e+06  1.14e+06  1289s
  30* -1.20124683e+19 -7.10568054e+18  2.33e+00 1.33e+05  1.09e+05  1317s
  31* -7.40950073e+19 -3.55134202e+19  3.90e-01 1.31e+04  1.04e+04  1344s
  32* -7.40943769e+19 -3.55131495e+19  3.90e-01 1.24e+04  9.40e+03  1370s
  33* -7.40971514e+19 -3.55158131e+19  3.91e-01 1.18e+04  8.56e+03  1397s
  34* -7.40969857e+19 -3.55157291e+19  3.91e-01 1.18e+04  8.56e+03  1443s
  35* -7.41412678e+19 -3.55700895e+19  3.91e-01 1.18e+04  8.54e+03  1483s
  36* -7.41833919e+19 -3.56089472e+19  3.91e-01 1.14e+04  7.83e+03  1526s
  37* -7.41838321e+19 -3.56091413e+19  3.92e-01 1.10e+04  7.24e+03  1570s
  38* -7.42032350e+19 -3.56282844e+19  3.93e-01 1.10e+04  7.23e+03  1609s
  39* -7.42042256e+19 -3.56288172e+19  3.93e-01 1.10e+04  7.23e+03  1656s
  40* -7.42042728e+19 -3.56289982e+19  3.93e-01 1.07e+04  6.74e+03  1700s
  41* -7.42718831e+19 -3.57341216e+19  3.92e-01 1.05e+04  6.31e+03  1738s
  42* -7.42992422e+19 -3.57577723e+19  3.92e-01 1.05e+04  6.31e+03  1779s
  43* -7.43552282e+19 -3.58023868e+19  3.93e-01 1.05e+04  6.30e+03  1819s

Gurobi 9.1.2 (linux64) logging started Mon Jul  5 18:43:54 2021


Gurobi 9.1.2 (linux64) logging started Mon Jul  5 18:44:04 2021

Gurobi Optimizer version 9.1.2 build v9.1.2rc0 (linux64)
Thread count: 40 physical cores, 40 logical processors, using up to 32 threads
Optimize a model with 3118434 rows, 1314095 columns and 9410455 nonzeros
Model fingerprint: 0xe5a9e4e4
Coefficient statistics:
  Matrix range     [3e-04, 1e+00]
  Objective range  [1e+01, 4e+05]
  Bounds range     [1e-01, 8e+06]
  RHS range        [6e+00, 3e+07]

Concurrent LP optimizer: primal simplex, dual simplex, and barrier
Showing barrier log only...

Warning: Concurrent optimizer requires crossover - forcing it on
Presolve removed 2320015 rows and 216643 columns (presolve time = 5s) ...
Presolve removed 2325997 rows and 222826 columns (presolve time = 10s) ...
Presolve removed 2333437 rows and 230543 columns (presolve time = 15s) ...
Presolve removed 2338816 rows and 236119 columns (presolve time = 20s) ...
Presolve removed 2344344 rows and 241842 columns (presolve time = 25s) ...
Presolve removed 2351785 rows and 249562 columns (presolve time = 30s) ...
Presolve removed 2357277 rows and 255252 columns (presolve time = 35s) ...
Presolve removed 2362691 rows and 260856 columns (presolve time = 40s) ...
Presolve removed 2370392 rows and 268821 columns (presolve time = 45s) ...
Presolve removed 2376371 rows and 274999 columns (presolve time = 50s) ...
Presolve removed 2382012 rows and 280837 columns (presolve time = 55s) ...
Presolve removed 2390200 rows and 289292 columns (presolve time = 60s) ...
Presolve removed 2395915 rows and 295199 columns (presolve time = 65s) ...
Presolve removed 2402345 rows and 301824 columns (presolve time = 70s) ...
Presolve removed 2408608 rows and 308348 columns (presolve time = 75s) ...
Presolve removed 2413889 rows and 313887 columns (presolve time = 80s) ...
Presolve removed 2418706 rows and 318919 columns (presolve time = 85s) ...
Presolve removed 2425015 rows and 325516 columns (presolve time = 90s) ...
Presolve removed 2429309 rows and 330040 columns (presolve time = 95s) ...
Presolve removed 2433299 rows and 334260 columns (presolve time = 100s) ...
Presolve removed 2437992 rows and 339281 columns (presolve time = 105s) ...
Presolve removed 2441661 rows and 343219 columns (presolve time = 110s) ...
Presolve removed 2445102 rows and 346923 columns (presolve time = 115s) ...
Presolve removed 2449634 rows and 351765 columns (presolve time = 120s) ...
Presolve removed 2451684 rows and 354078 columns (presolve time = 125s) ...
Presolve removed 2454232 rows and 356818 columns (presolve time = 130s) ...
Presolve removed 2455928 rows and 358738 columns (presolve time = 135s) ...
Presolve removed 2458713 rows and 361820 columns (presolve time = 140s) ...
Presolve removed 2460396 rows and 363797 columns (presolve time = 145s) ...
Presolve removed 2462029 rows and 365681 columns (presolve time = 150s) ...
Presolve removed 2464888 rows and 368841 columns (presolve time = 155s) ...
Presolve removed 2466954 rows and 371185 columns (presolve time = 160s) ...
Presolve removed 2469152 rows and 373610 columns (presolve time = 165s) ...
Presolve removed 2471533 rows and 376259 columns (presolve time = 170s) ...
Presolve removed 2473301 rows and 378302 columns (presolve time = 175s) ...
Presolve removed 2475969 rows and 381149 columns (presolve time = 180s) ...
Presolve removed 2477770 rows and 383202 columns (presolve time = 185s) ...
Presolve removed 2481717 rows and 387451 columns (presolve time = 190s) ...
Presolve removed 2484102 rows and 390013 columns (presolve time = 195s) ...
Presolve removed 2489168 rows and 395293 columns (presolve time = 200s) ...
Presolve removed 2494643 rows and 400976 columns (presolve time = 205s) ...
Presolve removed 2499901 rows and 406468 columns (presolve time = 210s) ...
Presolve removed 2503656 rows and 410425 columns (presolve time = 215s) ...
Presolve removed 2511295 rows and 418294 columns (presolve time = 220s) ...
Presolve removed 2518451 rows and 425662 columns (presolve time = 225s) ...
Presolve removed 2524586 rows and 431986 columns (presolve time = 230s) ...
Presolve removed 2529428 rows and 437011 columns (presolve time = 235s) ...
Presolve removed 2535789 rows and 443629 columns (presolve time = 240s) ...
Presolve removed 2539836 rows and 447868 columns (presolve time = 245s) ...
Presolve removed 2543954 rows and 452167 columns (presolve time = 250s) ...
Presolve removed 2549196 rows and 457703 columns (presolve time = 255s) ...
Presolve removed 2551737 rows and 460474 columns (presolve time = 260s) ...
Presolve removed 2555306 rows and 464243 columns (presolve time = 265s) ...
Presolve removed 2559888 rows and 469096 columns (presolve time = 270s) ...
Presolve removed 2562818 rows and 472343 columns (presolve time = 275s) ...
Presolve removed 2565339 rows and 475281 columns (presolve time = 280s) ...
Presolve removed 2567617 rows and 478058 columns (presolve time = 285s) ...
Presolve removed 2570891 rows and 481833 columns (presolve time = 290s) ...
Presolve removed 2573123 rows and 484472 columns (presolve time = 295s) ...
Presolve removed 2575831 rows and 487641 columns (presolve time = 300s) ...
Presolve removed 2578985 rows and 491278 columns (presolve time = 305s) ...
Presolve removed 2582016 rows and 494555 columns (presolve time = 310s) ...
Presolve removed 2585396 rows and 498140 columns (presolve time = 315s) ...
Presolve removed 2589788 rows and 502791 columns (presolve time = 320s) ...
Presolve removed 2592609 rows and 505824 columns (presolve time = 325s) ...
Presolve removed 2596008 rows and 509412 columns (presolve time = 330s) ...
Presolve removed 2597936 rows and 654527 columns (presolve time = 336s) ...
Presolve removed 2605782 rows and 662373 columns (presolve time = 340s) ...
Presolve removed 2816741 rows and 664784 columns
Presolve time: 343.41s
Presolved: 301693 rows, 860270 columns, 2075280 nonzeros

Ordering time: 0.95s

Barrier statistics:
 AA' NZ     : 1.178e+06
 Factor NZ  : 1.108e+07 (roughly 600 MBytes of memory)
 Factor Ops : 1.126e+09 (less than 1 second per iteration)
 Threads    : 30

                  Objective                Residual
Iter       Primal          Dual         Primal    Dual     Compl     Time
   0   1.72017473e+14 -6.33929277e+12  5.61e+11 4.36e+02  6.29e+09   357s
   1   4.42928642e+13 -6.62567960e+12  8.82e+10 2.24e+01  9.90e+08   368s
   2   1.42106537e+12 -5.92214540e+12  6.52e+08 5.91e-12  1.14e+07   382s
   3   1.27117887e+12 -3.63548423e+12  1.01e+08 3.70e-12  3.91e+06   404s
   4   1.19754221e+12 -2.77434189e+12  6.28e+07 3.08e-12  2.95e+06   419s
   5   1.11657087e+12  2.76786136e+11  7.56e+06 5.52e-12  5.58e+05   431s
   6   1.00502952e+12  7.24839190e+11  2.30e+06 3.43e-12  1.84e+05   442s
   7   9.73867392e+11  8.71924175e+11  9.78e+05 3.43e-12  6.83e+04   453s
   8   9.61338294e+11  9.20856815e+11  3.63e+05 3.43e-12  2.69e+04   465s
   9   9.56649961e+11  9.47519277e+11  8.07e+04 3.93e-12  6.02e+03   480s
  10   9.55741786e+11  9.52451438e+11  3.05e+04 2.57e-12  2.15e+03   491s
  11   9.55286832e+11  9.54812922e+11  6.68e+03 2.57e-12  3.13e+02   507s
  12   9.55188704e+11  9.55035106e+11  2.24e+03 1.66e-12  9.86e+01   519s
  13   9.55152477e+11  9.55115267e+11  7.12e+02 1.82e-12  2.37e+01   534s
  14   9.55140047e+11  9.55126889e+11  2.39e+02 9.09e-13  8.21e+00   544s
  15   9.55134676e+11  9.55131109e+11  4.30e+01 9.09e-13  2.17e+00   558s
  16   9.55133968e+11  9.55132629e+11  1.81e+01 5.20e-13  8.12e-01   569s
  17   9.55133607e+11  9.55133144e+11  5.82e+00 5.20e-13  2.79e-01   586s
  18   9.55133448e+11  9.55133409e+11  6.59e-01 3.91e-08  2.42e-02   605s
  19   9.55133432e+11  9.55133422e+11  2.01e-01 4.49e-08  6.15e-03   620s
  20   9.55133427e+11  9.55133423e+11  5.85e-02 5.97e-08  1.96e-03   630s
  21   9.55133424e+11  9.55133424e+11  1.32e-03 1.14e-08  5.24e-05   640s
  22   9.55133424e+11  9.55133424e+11  2.35e-04 4.48e-12  2.88e-09   653s

Barrier solved model in 22 iterations and 653.91 seconds
Optimal objective 9.55133424e+11

Crossover log...

  154838 DPushes remaining with DInf 0.0000000e+00               665s
    4019 DPushes remaining with DInf 0.0000000e+00               665s
       0 DPushes remaining with DInf 0.0000000e+00               666s
Warning: Markowitz tolerance tightened to 0.5

  287135 PPushes remaining with PInf 0.0000000e+00               666s
   59971 PPushes remaining with PInf 0.0000000e+00               670s
   52501 PPushes remaining with PInf 0.0000000e+00               675s
   44375 PPushes remaining with PInf 0.0000000e+00               680s
   39027 PPushes remaining with PInf 0.0000000e+00               685s
   33073 PPushes remaining with PInf 0.0000000e+00               690s
   27757 PPushes remaining with PInf 0.0000000e+00               695s
   23596 PPushes remaining with PInf 0.0000000e+00               700s
   18268 PPushes remaining with PInf 0.0000000e+00               705s
   14416 PPushes remaining with PInf 0.0000000e+00               710s
   10530 PPushes remaining with PInf 0.0000000e+00               715s
    6052 PPushes remaining with PInf 0.0000000e+00               720s
    2728 PPushes remaining with PInf 0.0000000e+00               725s
       0 PPushes remaining with PInf 0.0000000e+00               728s

  Push phase complete: Pinf 0.0000000e+00, Dinf 1.1522516e-10    728s

Iteration    Objective       Primal Inf.    Dual Inf.      Time
  354475    9.5513342e+11   0.000000e+00   2.000000e-06    739s
Extra simplex iterations after uncrush: 1
  354476    9.5513342e+11   0.000000e+00   0.000000e+00    743s

Solved with barrier
Solved in 354476 iterations and 745.81 seconds
Optimal objective  9.551334244e+11

User-callback calls 396706, time in user-callback 0.49 sec
